76
150
105	4
104	5
103	5
102	3
101	5
100	4
99	6
98	10
97	5
96	6
95	5
94	4
93	3
92	6
91	5
90	4
89	5
88	7
87	5
86	6
85	6
84	5
83	10
82	6
81	7
80	6
79	7
78	7
77	10
76	1
75	3
74	5
73	5
72	7
71	7
70	4
69	4
68	4
67	3
66	4
65	4
64	5
63	6
62	5
61	2
60	11
59	4
58	6
57	3
56	5
55	6
54	4
53	7
52	5
51	7
50	9
49	6
48	5
47	5
46	4
45	4
44	3
43	5
42	4
41	3
40	7
39	5
38	3
37	6
36	4
35	9
34	3
33	7
32	6
31	4
30	4
